# IMPORTANT - THE STAGES ARE ASSUMED TO BE IN TIME-ORDER.

set Stages := FirstStage SecondStage ;

set StageVariables[FirstStage] :=  DevotedAcreage[*];

set StageVariables[SecondStage] := QuantitySubQuotaSold[*]
                                   QuantitySuperQuotaSold[*]
                                   QuantityPurchased[*];

param StageCost := FirstStage  FirstStageCost
                   SecondStage SecondStageCost ;

set Nodes :=
   Node_ROOT
   Node_ROOT_rs1
   Node_ROOT_rs2
   Node_ROOT_rs3
;

param NodeStage :=
   Node_ROOT FirstStage
   Node_ROOT_rs1 SecondStage
   Node_ROOT_rs2 SecondStage
   Node_ROOT_rs3 SecondStage
;

set Children[Node_ROOT] := 
   Node_ROOT_rs1   Node_ROOT_rs2   Node_ROOT_rs3;

param ConditionalProbability :=
   Node_ROOT 1.0
   Node_ROOT_rs1 0.3333333333333333
   Node_ROOT_rs2 0.3333333333333333
   Node_ROOT_rs3 0.3333333333333333
;

set Scenarios :=
   Scenario_rs1   Scenario_rs2   Scenario_rs3;

param ScenarioLeafNode :=
   Scenario_rs1 Node_ROOT_rs1
   Scenario_rs2 Node_ROOT_rs2
   Scenario_rs3 Node_ROOT_rs3
;
